* #variable= 540 #constraint= 1353 
-1 x31 +1 x1 >= 0 ;
-1 x31 +1 x16 >= 0 ;
+1 x31 -1 x1 -1 x16 >= -1 ;
+1 x31 +2 x46 +4 x61 +8 x76 +16 x91 +32 x106 +64 x121 +128 x136 +256 x151 +512 x166 +1024 x181 +2048 x196 +4096 x211 +8192 x226 +16384 x241 +2 x32 +4 x47 +8 x62 +16 x77 +32 x92 +64 x107 +128 x122 +256 x137 +512 x152 +1024 x167 +2048 x182 +4096 x197 +8192 x212 +16384 x227 +32768 x242 +4 x33 +8 x48 +16 x63 +32 x78 +64 x93 +128 x108 +256 x123 +512 x138 +1024 x153 +2048 x168 +4096 x183 +8192 x198 +16384 x213 +32768 x228 +65536 x243 +8 x34 +16 x49 +32 x64 +64 x79 +128 x94 +256 x109 +512 x124 +1024 x139 +2048 x154 +4096 x169 +8192 x184 +16384 x199 +32768 x214 +65536 x229 +131072 x244 +16 x35 +32 x50 +64 x65 +128 x80 +256 x95 +512 x110 +1024 x125 +2048 x140 +4096 x155 +8192 x170 +16384 x185 +32768 x200 +65536 x215 +131072 x230 +262144 x245 +32 x36 +64 x51 +128 x66 +256 x81 +512 x96 +1024 x111 +2048 x126 +4096 x141 +8192 x156 +16384 x171 +32768 x186 +65536 x201 +131072 x216 +262144 x231 +524288 x246 +64 x37 +128 x52 +256 x67 +512 x82 +1024 x97 +2048 x112 +4096 x127 +8192 x142 +16384 x157 +32768 x172 +65536 x187 +131072 x202 +262144 x217 +524288 x232 +1048576 x247 +128 x38 +256 x53 +512 x68 +1024 x83 +2048 x98 +4096 x113 +8192 x128 +16384 x143 +32768 x158 +65536 x173 +131072 x188 +262144 x203 +524288 x218 +1048576 x233 +2097152 x248 +256 x39 +512 x54 +1024 x69 +2048 x84 +4096 x99 +8192 x114 +16384 x129 +32768 x144 +65536 x159 +131072 x174 +262144 x189 +524288 x204 +1048576 x219 +2097152 x234 +4194304 x249 +512 x40 +1024 x55 +2048 x70 +4096 x85 +8192 x100 +16384 x115 +32768 x130 +65536 x145 +131072 x160 +262144 x175 +524288 x190 +1048576 x205 +2097152 x220 +4194304 x235 +8388608 x250 +1024 x41 +2048 x56 +4096 x71 +8192 x86 +16384 x101 +32768 x116 +65536 x131 +131072 x146 +262144 x161 +524288 x176 +1048576 x191 +2097152 x206 +4194304 x221 +8388608 x236 +16777216 x251 +2048 x42 +4096 x57 +8192 x72 +16384 x87 +32768 x102 +65536 x117 +131072 x132 +262144 x147 +524288 x162 +1048576 x177 +2097152 x192 +4194304 x207 +8388608 x222 +16777216 x237 +33554432 x252 +4096 x43 +8192 x58 +16384 x73 +32768 x88 +65536 x103 +131072 x118 +262144 x133 +524288 x148 +1048576 x163 +2097152 x178 +4194304 x193 +8388608 x208 +16777216 x223 +33554432 x238 +67108864 x253 +8192 x44 +16384 x59 +32768 x74 +65536 x89 +131072 x104 +262144 x119 +524288 x134 +1048576 x149 +2097152 x164 +4194304 x179 +8388608 x194 +16777216 x209 +33554432 x224 +67108864 x239 +134217728 x254 +16384 x45 +32768 x60 +65536 x75 +131072 x90 +262144 x105 +524288 x120 +1048576 x135 +2097152 x150 +4194304 x165 +8388608 x180 +16777216 x195 +33554432 x210 +67108864 x225 +134217728 x240 +268435456 x255 -1 x511 -2 x512 -4 x513 -8 x514 -16 x515 -32 x516 -64 x517 -128 x518 -256 x519 -512 x520 -1024 x521 -2048 x522 -4096 x523 -8192 x524 -16384 x525 -32768 x526 -65536 x527 -131072 x528 -262144 x529 -524288 x530 -1048576 x531 -2097152 x532 -4194304 x533 -8388608 x534 -16777216 x535 -33554432 x536 -67108864 x537 -134217728 x538 -268435456 x539 -536870912 x540 = 0; 
-1 x256 +1 x16 >= 0 ;
-1 x256 +1 x1 >= 0 ;
+1 x256 -1 x16 -1 x1 >= -1 ;
+1 x256 +2 x271 +4 x286 +8 x301 +16 x316 +32 x331 +64 x346 +128 x361 +256 x376 +512 x391 +1024 x406 +2048 x421 +4096 x436 +8192 x451 +16384 x466 +2 x257 +4 x272 +8 x287 +16 x302 +32 x317 +64 x332 +128 x347 +256 x362 +512 x377 +1024 x392 +2048 x407 +4096 x422 +8192 x437 +16384 x452 +32768 x467 +4 x258 +8 x273 +16 x288 +32 x303 +64 x318 +128 x333 +256 x348 +512 x363 +1024 x378 +2048 x393 +4096 x408 +8192 x423 +16384 x438 +32768 x453 +65536 x468 +8 x259 +16 x274 +32 x289 +64 x304 +128 x319 +256 x334 +512 x349 +1024 x364 +2048 x379 +4096 x394 +8192 x409 +16384 x424 +32768 x439 +65536 x454 +131072 x469 +16 x260 +32 x275 +64 x290 +128 x305 +256 x320 +512 x335 +1024 x350 +2048 x365 +4096 x380 +8192 x395 +16384 x410 +32768 x425 +65536 x440 +131072 x455 +262144 x470 +32 x261 +64 x276 +128 x291 +256 x306 +512 x321 +1024 x336 +2048 x351 +4096 x366 +8192 x381 +16384 x396 +32768 x411 +65536 x426 +131072 x441 +262144 x456 +524288 x471 +64 x262 +128 x277 +256 x292 +512 x307 +1024 x322 +2048 x337 +4096 x352 +8192 x367 +16384 x382 +32768 x397 +65536 x412 +131072 x427 +262144 x442 +524288 x457 +1048576 x472 +128 x263 +256 x278 +512 x293 +1024 x308 +2048 x323 +4096 x338 +8192 x353 +16384 x368 +32768 x383 +65536 x398 +131072 x413 +262144 x428 +524288 x443 +1048576 x458 +2097152 x473 +256 x264 +512 x279 +1024 x294 +2048 x309 +4096 x324 +8192 x339 +16384 x354 +32768 x369 +65536 x384 +131072 x399 +262144 x414 +524288 x429 +1048576 x444 +2097152 x459 +4194304 x474 +512 x265 +1024 x280 +2048 x295 +4096 x310 +8192 x325 +16384 x340 +32768 x355 +65536 x370 +131072 x385 +262144 x400 +524288 x415 +1048576 x430 +2097152 x445 +4194304 x460 +8388608 x475 +1024 x266 +2048 x281 +4096 x296 +8192 x311 +16384 x326 +32768 x341 +65536 x356 +131072 x371 +262144 x386 +524288 x401 +1048576 x416 +2097152 x431 +4194304 x446 +8388608 x461 +16777216 x476 +2048 x267 +4096 x282 +8192 x297 +16384 x312 +32768 x327 +65536 x342 +131072 x357 +262144 x372 +524288 x387 +1048576 x402 +2097152 x417 +4194304 x432 +8388608 x447 +16777216 x462 +33554432 x477 +4096 x268 +8192 x283 +16384 x298 +32768 x313 +65536 x328 +131072 x343 +262144 x358 +524288 x373 +1048576 x388 +2097152 x403 +4194304 x418 +8388608 x433 +16777216 x448 +33554432 x463 +67108864 x478 +8192 x269 +16384 x284 +32768 x299 +65536 x314 +131072 x329 +262144 x344 +524288 x359 +1048576 x374 +2097152 x389 +4194304 x404 +8388608 x419 +16777216 x434 +33554432 x449 +67108864 x464 +134217728 x479 +16384 x270 +32768 x285 +65536 x300 +131072 x315 +262144 x330 +524288 x345 +1048576 x360 +2097152 x375 +4194304 x390 +8388608 x405 +16777216 x420 +33554432 x435 +67108864 x450 +134217728 x465 +268435456 x480 -1 x481 -2 x482 -4 x483 -8 x484 -16 x485 -32 x486 -64 x487 -128 x488 -256 x489 -512 x490 -1024 x491 -2048 x492 -4096 x493 -8192 x494 -16384 x495 -32768 x496 -65536 x497 -131072 x498 -262144 x499 -524288 x500 -1048576 x501 -2097152 x502 -4194304 x503 -8388608 x504 -16777216 x505 -33554432 x506 -67108864 x507 -134217728 x508 -268435456 x509 -536870912 x510 = 0; 
+1 x511 -1 x481 +2 x512 -2 x482 +4 x513 -4 x483 +8 x514 -8 x484 +16 x515 -16 x485 +32 x516 -32 x486 +64 x517 -64 x487 +128 x518 -128 x488 +256 x519 -256 x489 +512 x520 -512 x490 +1024 x521 -1024 x491 +2048 x522 -2048 x492 +4096 x523 -4096 x493 +8192 x524 -8192 x494 +16384 x525 -16384 x495 +32768 x526 -32768 x496 +65536 x527 -65536 x497 +131072 x528 -131072 x498 +262144 x529 -262144 x499 +524288 x530 -524288 x500 +1048576 x531 -1048576 x501 +2097152 x532 -2097152 x502 +4194304 x533 -4194304 x503 +8388608 x534 -8388608 x504 +16777216 x535 -16777216 x505 +33554432 x536 -33554432 x506 +67108864 x537 -67108864 x507 +134217728 x538 -134217728 x508 +268435456 x539 -268435456 x509 +536870912 x540 -536870912 x510 >= 1 ;
-1 x46 +1 x2 >= 0 ;
-1 x46 +1 x16 >= 0 ;
+1 x46 -1 x2 -1 x16 >= -1 ;
-1 x32 +1 x1 >= 0 ;
-1 x32 +1 x17 >= 0 ;
+1 x32 -1 x1 -1 x17 >= -1 ;
-1 x271 +1 x17 >= 0 ;
-1 x271 +1 x1 >= 0 ;
+1 x271 -1 x17 -1 x1 >= -1 ;
-1 x257 +1 x16 >= 0 ;
-1 x257 +1 x2 >= 0 ;
+1 x257 -1 x16 -1 x2 >= -1 ;
-1 x61 +1 x3 >= 0 ;
-1 x61 +1 x16 >= 0 ;
+1 x61 -1 x3 -1 x16 >= -1 ;
-1 x47 +1 x2 >= 0 ;
-1 x47 +1 x17 >= 0 ;
+1 x47 -1 x2 -1 x17 >= -1 ;
-1 x33 +1 x1 >= 0 ;
-1 x33 +1 x18 >= 0 ;
+1 x33 -1 x1 -1 x18 >= -1 ;
-1 x286 +1 x18 >= 0 ;
-1 x286 +1 x1 >= 0 ;
+1 x286 -1 x18 -1 x1 >= -1 ;
-1 x272 +1 x17 >= 0 ;
-1 x272 +1 x2 >= 0 ;
+1 x272 -1 x17 -1 x2 >= -1 ;
-1 x258 +1 x16 >= 0 ;
-1 x258 +1 x3 >= 0 ;
+1 x258 -1 x16 -1 x3 >= -1 ;
-1 x76 +1 x4 >= 0 ;
-1 x76 +1 x16 >= 0 ;
+1 x76 -1 x4 -1 x16 >= -1 ;
-1 x62 +1 x3 >= 0 ;
-1 x62 +1 x17 >= 0 ;
+1 x62 -1 x3 -1 x17 >= -1 ;
-1 x48 +1 x2 >= 0 ;
-1 x48 +1 x18 >= 0 ;
+1 x48 -1 x2 -1 x18 >= -1 ;
-1 x34 +1 x1 >= 0 ;
-1 x34 +1 x19 >= 0 ;
+1 x34 -1 x1 -1 x19 >= -1 ;
-1 x301 +1 x19 >= 0 ;
-1 x301 +1 x1 >= 0 ;
+1 x301 -1 x19 -1 x1 >= -1 ;
-1 x287 +1 x18 >= 0 ;
-1 x287 +1 x2 >= 0 ;
+1 x287 -1 x18 -1 x2 >= -1 ;
-1 x273 +1 x17 >= 0 ;
-1 x273 +1 x3 >= 0 ;
+1 x273 -1 x17 -1 x3 >= -1 ;
-1 x259 +1 x16 >= 0 ;
-1 x259 +1 x4 >= 0 ;
+1 x259 -1 x16 -1 x4 >= -1 ;
-1 x91 +1 x5 >= 0 ;
-1 x91 +1 x16 >= 0 ;
+1 x91 -1 x5 -1 x16 >= -1 ;
-1 x77 +1 x4 >= 0 ;
-1 x77 +1 x17 >= 0 ;
+1 x77 -1 x4 -1 x17 >= -1 ;
-1 x63 +1 x3 >= 0 ;
-1 x63 +1 x18 >= 0 ;
+1 x63 -1 x3 -1 x18 >= -1 ;
-1 x49 +1 x2 >= 0 ;
-1 x49 +1 x19 >= 0 ;
+1 x49 -1 x2 -1 x19 >= -1 ;
-1 x35 +1 x1 >= 0 ;
-1 x35 +1 x20 >= 0 ;
+1 x35 -1 x1 -1 x20 >= -1 ;
-1 x316 +1 x20 >= 0 ;
-1 x316 +1 x1 >= 0 ;
+1 x316 -1 x20 -1 x1 >= -1 ;
-1 x302 +1 x19 >= 0 ;
-1 x302 +1 x2 >= 0 ;
+1 x302 -1 x19 -1 x2 >= -1 ;
-1 x288 +1 x18 >= 0 ;
-1 x288 +1 x3 >= 0 ;
+1 x288 -1 x18 -1 x3 >= -1 ;
-1 x274 +1 x17 >= 0 ;
-1 x274 +1 x4 >= 0 ;
+1 x274 -1 x17 -1 x4 >= -1 ;
-1 x260 +1 x16 >= 0 ;
-1 x260 +1 x5 >= 0 ;
+1 x260 -1 x16 -1 x5 >= -1 ;
-1 x106 +1 x6 >= 0 ;
-1 x106 +1 x16 >= 0 ;
+1 x106 -1 x6 -1 x16 >= -1 ;
-1 x92 +1 x5 >= 0 ;
-1 x92 +1 x17 >= 0 ;
+1 x92 -1 x5 -1 x17 >= -1 ;
-1 x78 +1 x4 >= 0 ;
-1 x78 +1 x18 >= 0 ;
+1 x78 -1 x4 -1 x18 >= -1 ;
-1 x64 +1 x3 >= 0 ;
-1 x64 +1 x19 >= 0 ;
+1 x64 -1 x3 -1 x19 >= -1 ;
-1 x50 +1 x2 >= 0 ;
-1 x50 +1 x20 >= 0 ;
+1 x50 -1 x2 -1 x20 >= -1 ;
-1 x36 +1 x1 >= 0 ;
-1 x36 +1 x21 >= 0 ;
+1 x36 -1 x1 -1 x21 >= -1 ;
-1 x331 +1 x21 >= 0 ;
-1 x331 +1 x1 >= 0 ;
+1 x331 -1 x21 -1 x1 >= -1 ;
-1 x317 +1 x20 >= 0 ;
-1 x317 +1 x2 >= 0 ;
+1 x317 -1 x20 -1 x2 >= -1 ;
-1 x303 +1 x19 >= 0 ;
-1 x303 +1 x3 >= 0 ;
+1 x303 -1 x19 -1 x3 >= -1 ;
-1 x289 +1 x18 >= 0 ;
-1 x289 +1 x4 >= 0 ;
+1 x289 -1 x18 -1 x4 >= -1 ;
-1 x275 +1 x17 >= 0 ;
-1 x275 +1 x5 >= 0 ;
+1 x275 -1 x17 -1 x5 >= -1 ;
-1 x261 +1 x16 >= 0 ;
-1 x261 +1 x6 >= 0 ;
+1 x261 -1 x16 -1 x6 >= -1 ;
-1 x121 +1 x7 >= 0 ;
-1 x121 +1 x16 >= 0 ;
+1 x121 -1 x7 -1 x16 >= -1 ;
-1 x107 +1 x6 >= 0 ;
-1 x107 +1 x17 >= 0 ;
+1 x107 -1 x6 -1 x17 >= -1 ;
-1 x93 +1 x5 >= 0 ;
-1 x93 +1 x18 >= 0 ;
+1 x93 -1 x5 -1 x18 >= -1 ;
-1 x79 +1 x4 >= 0 ;
-1 x79 +1 x19 >= 0 ;
+1 x79 -1 x4 -1 x19 >= -1 ;
-1 x65 +1 x3 >= 0 ;
-1 x65 +1 x20 >= 0 ;
+1 x65 -1 x3 -1 x20 >= -1 ;
-1 x51 +1 x2 >= 0 ;
-1 x51 +1 x21 >= 0 ;
+1 x51 -1 x2 -1 x21 >= -1 ;
-1 x37 +1 x1 >= 0 ;
-1 x37 +1 x22 >= 0 ;
+1 x37 -1 x1 -1 x22 >= -1 ;
-1 x346 +1 x22 >= 0 ;
-1 x346 +1 x1 >= 0 ;
+1 x346 -1 x22 -1 x1 >= -1 ;
-1 x332 +1 x21 >= 0 ;
-1 x332 +1 x2 >= 0 ;
+1 x332 -1 x21 -1 x2 >= -1 ;
-1 x318 +1 x20 >= 0 ;
-1 x318 +1 x3 >= 0 ;
+1 x318 -1 x20 -1 x3 >= -1 ;
-1 x304 +1 x19 >= 0 ;
-1 x304 +1 x4 >= 0 ;
+1 x304 -1 x19 -1 x4 >= -1 ;
-1 x290 +1 x18 >= 0 ;
-1 x290 +1 x5 >= 0 ;
+1 x290 -1 x18 -1 x5 >= -1 ;
-1 x276 +1 x17 >= 0 ;
-1 x276 +1 x6 >= 0 ;
+1 x276 -1 x17 -1 x6 >= -1 ;
-1 x262 +1 x16 >= 0 ;
-1 x262 +1 x7 >= 0 ;
+1 x262 -1 x16 -1 x7 >= -1 ;
-1 x136 +1 x8 >= 0 ;
-1 x136 +1 x16 >= 0 ;
+1 x136 -1 x8 -1 x16 >= -1 ;
-1 x122 +1 x7 >= 0 ;
-1 x122 +1 x17 >= 0 ;
+1 x122 -1 x7 -1 x17 >= -1 ;
-1 x108 +1 x6 >= 0 ;
-1 x108 +1 x18 >= 0 ;
+1 x108 -1 x6 -1 x18 >= -1 ;
-1 x94 +1 x5 >= 0 ;
-1 x94 +1 x19 >= 0 ;
+1 x94 -1 x5 -1 x19 >= -1 ;
-1 x80 +1 x4 >= 0 ;
-1 x80 +1 x20 >= 0 ;
+1 x80 -1 x4 -1 x20 >= -1 ;
-1 x66 +1 x3 >= 0 ;
-1 x66 +1 x21 >= 0 ;
+1 x66 -1 x3 -1 x21 >= -1 ;
-1 x52 +1 x2 >= 0 ;
-1 x52 +1 x22 >= 0 ;
+1 x52 -1 x2 -1 x22 >= -1 ;
-1 x38 +1 x1 >= 0 ;
-1 x38 +1 x23 >= 0 ;
+1 x38 -1 x1 -1 x23 >= -1 ;
-1 x361 +1 x23 >= 0 ;
-1 x361 +1 x1 >= 0 ;
+1 x361 -1 x23 -1 x1 >= -1 ;
-1 x347 +1 x22 >= 0 ;
-1 x347 +1 x2 >= 0 ;
+1 x347 -1 x22 -1 x2 >= -1 ;
-1 x333 +1 x21 >= 0 ;
-1 x333 +1 x3 >= 0 ;
+1 x333 -1 x21 -1 x3 >= -1 ;
-1 x319 +1 x20 >= 0 ;
-1 x319 +1 x4 >= 0 ;
+1 x319 -1 x20 -1 x4 >= -1 ;
-1 x305 +1 x19 >= 0 ;
-1 x305 +1 x5 >= 0 ;
+1 x305 -1 x19 -1 x5 >= -1 ;
-1 x291 +1 x18 >= 0 ;
-1 x291 +1 x6 >= 0 ;
+1 x291 -1 x18 -1 x6 >= -1 ;
-1 x277 +1 x17 >= 0 ;
-1 x277 +1 x7 >= 0 ;
+1 x277 -1 x17 -1 x7 >= -1 ;
-1 x263 +1 x16 >= 0 ;
-1 x263 +1 x8 >= 0 ;
+1 x263 -1 x16 -1 x8 >= -1 ;
-1 x151 +1 x9 >= 0 ;
-1 x151 +1 x16 >= 0 ;
+1 x151 -1 x9 -1 x16 >= -1 ;
-1 x137 +1 x8 >= 0 ;
-1 x137 +1 x17 >= 0 ;
+1 x137 -1 x8 -1 x17 >= -1 ;
-1 x123 +1 x7 >= 0 ;
-1 x123 +1 x18 >= 0 ;
+1 x123 -1 x7 -1 x18 >= -1 ;
-1 x109 +1 x6 >= 0 ;
-1 x109 +1 x19 >= 0 ;
+1 x109 -1 x6 -1 x19 >= -1 ;
-1 x95 +1 x5 >= 0 ;
-1 x95 +1 x20 >= 0 ;
+1 x95 -1 x5 -1 x20 >= -1 ;
-1 x81 +1 x4 >= 0 ;
-1 x81 +1 x21 >= 0 ;
+1 x81 -1 x4 -1 x21 >= -1 ;
-1 x67 +1 x3 >= 0 ;
-1 x67 +1 x22 >= 0 ;
+1 x67 -1 x3 -1 x22 >= -1 ;
-1 x53 +1 x2 >= 0 ;
-1 x53 +1 x23 >= 0 ;
+1 x53 -1 x2 -1 x23 >= -1 ;
-1 x39 +1 x1 >= 0 ;
-1 x39 +1 x24 >= 0 ;
+1 x39 -1 x1 -1 x24 >= -1 ;
-1 x376 +1 x24 >= 0 ;
-1 x376 +1 x1 >= 0 ;
+1 x376 -1 x24 -1 x1 >= -1 ;
-1 x362 +1 x23 >= 0 ;
-1 x362 +1 x2 >= 0 ;
+1 x362 -1 x23 -1 x2 >= -1 ;
-1 x348 +1 x22 >= 0 ;
-1 x348 +1 x3 >= 0 ;
+1 x348 -1 x22 -1 x3 >= -1 ;
-1 x334 +1 x21 >= 0 ;
-1 x334 +1 x4 >= 0 ;
+1 x334 -1 x21 -1 x4 >= -1 ;
-1 x320 +1 x20 >= 0 ;
-1 x320 +1 x5 >= 0 ;
+1 x320 -1 x20 -1 x5 >= -1 ;
-1 x306 +1 x19 >= 0 ;
-1 x306 +1 x6 >= 0 ;
+1 x306 -1 x19 -1 x6 >= -1 ;
-1 x292 +1 x18 >= 0 ;
-1 x292 +1 x7 >= 0 ;
+1 x292 -1 x18 -1 x7 >= -1 ;
-1 x278 +1 x17 >= 0 ;
-1 x278 +1 x8 >= 0 ;
+1 x278 -1 x17 -1 x8 >= -1 ;
-1 x264 +1 x16 >= 0 ;
-1 x264 +1 x9 >= 0 ;
+1 x264 -1 x16 -1 x9 >= -1 ;
-1 x166 +1 x10 >= 0 ;
-1 x166 +1 x16 >= 0 ;
+1 x166 -1 x10 -1 x16 >= -1 ;
-1 x152 +1 x9 >= 0 ;
-1 x152 +1 x17 >= 0 ;
+1 x152 -1 x9 -1 x17 >= -1 ;
-1 x138 +1 x8 >= 0 ;
-1 x138 +1 x18 >= 0 ;
+1 x138 -1 x8 -1 x18 >= -1 ;
-1 x124 +1 x7 >= 0 ;
-1 x124 +1 x19 >= 0 ;
+1 x124 -1 x7 -1 x19 >= -1 ;
-1 x110 +1 x6 >= 0 ;
-1 x110 +1 x20 >= 0 ;
+1 x110 -1 x6 -1 x20 >= -1 ;
-1 x96 +1 x5 >= 0 ;
-1 x96 +1 x21 >= 0 ;
+1 x96 -1 x5 -1 x21 >= -1 ;
-1 x82 +1 x4 >= 0 ;
-1 x82 +1 x22 >= 0 ;
+1 x82 -1 x4 -1 x22 >= -1 ;
-1 x68 +1 x3 >= 0 ;
-1 x68 +1 x23 >= 0 ;
+1 x68 -1 x3 -1 x23 >= -1 ;
-1 x54 +1 x2 >= 0 ;
-1 x54 +1 x24 >= 0 ;
+1 x54 -1 x2 -1 x24 >= -1 ;
-1 x40 +1 x1 >= 0 ;
-1 x40 +1 x25 >= 0 ;
+1 x40 -1 x1 -1 x25 >= -1 ;
-1 x391 +1 x25 >= 0 ;
-1 x391 +1 x1 >= 0 ;
+1 x391 -1 x25 -1 x1 >= -1 ;
-1 x377 +1 x24 >= 0 ;
-1 x377 +1 x2 >= 0 ;
+1 x377 -1 x24 -1 x2 >= -1 ;
-1 x363 +1 x23 >= 0 ;
-1 x363 +1 x3 >= 0 ;
+1 x363 -1 x23 -1 x3 >= -1 ;
-1 x349 +1 x22 >= 0 ;
-1 x349 +1 x4 >= 0 ;
+1 x349 -1 x22 -1 x4 >= -1 ;
-1 x335 +1 x21 >= 0 ;
-1 x335 +1 x5 >= 0 ;
+1 x335 -1 x21 -1 x5 >= -1 ;
-1 x321 +1 x20 >= 0 ;
-1 x321 +1 x6 >= 0 ;
+1 x321 -1 x20 -1 x6 >= -1 ;
-1 x307 +1 x19 >= 0 ;
-1 x307 +1 x7 >= 0 ;
+1 x307 -1 x19 -1 x7 >= -1 ;
-1 x293 +1 x18 >= 0 ;
-1 x293 +1 x8 >= 0 ;
+1 x293 -1 x18 -1 x8 >= -1 ;
-1 x279 +1 x17 >= 0 ;
-1 x279 +1 x9 >= 0 ;
+1 x279 -1 x17 -1 x9 >= -1 ;
-1 x265 +1 x16 >= 0 ;
-1 x265 +1 x10 >= 0 ;
+1 x265 -1 x16 -1 x10 >= -1 ;
-1 x181 +1 x11 >= 0 ;
-1 x181 +1 x16 >= 0 ;
+1 x181 -1 x11 -1 x16 >= -1 ;
-1 x167 +1 x10 >= 0 ;
-1 x167 +1 x17 >= 0 ;
+1 x167 -1 x10 -1 x17 >= -1 ;
-1 x153 +1 x9 >= 0 ;
-1 x153 +1 x18 >= 0 ;
+1 x153 -1 x9 -1 x18 >= -1 ;
-1 x139 +1 x8 >= 0 ;
-1 x139 +1 x19 >= 0 ;
+1 x139 -1 x8 -1 x19 >= -1 ;
-1 x125 +1 x7 >= 0 ;
-1 x125 +1 x20 >= 0 ;
+1 x125 -1 x7 -1 x20 >= -1 ;
-1 x111 +1 x6 >= 0 ;
-1 x111 +1 x21 >= 0 ;
+1 x111 -1 x6 -1 x21 >= -1 ;
-1 x97 +1 x5 >= 0 ;
-1 x97 +1 x22 >= 0 ;
+1 x97 -1 x5 -1 x22 >= -1 ;
-1 x83 +1 x4 >= 0 ;
-1 x83 +1 x23 >= 0 ;
+1 x83 -1 x4 -1 x23 >= -1 ;
-1 x69 +1 x3 >= 0 ;
-1 x69 +1 x24 >= 0 ;
+1 x69 -1 x3 -1 x24 >= -1 ;
-1 x55 +1 x2 >= 0 ;
-1 x55 +1 x25 >= 0 ;
+1 x55 -1 x2 -1 x25 >= -1 ;
-1 x41 +1 x1 >= 0 ;
-1 x41 +1 x26 >= 0 ;
+1 x41 -1 x1 -1 x26 >= -1 ;
-1 x406 +1 x26 >= 0 ;
-1 x406 +1 x1 >= 0 ;
+1 x406 -1 x26 -1 x1 >= -1 ;
-1 x392 +1 x25 >= 0 ;
-1 x392 +1 x2 >= 0 ;
+1 x392 -1 x25 -1 x2 >= -1 ;
-1 x378 +1 x24 >= 0 ;
-1 x378 +1 x3 >= 0 ;
+1 x378 -1 x24 -1 x3 >= -1 ;
-1 x364 +1 x23 >= 0 ;
-1 x364 +1 x4 >= 0 ;
+1 x364 -1 x23 -1 x4 >= -1 ;
-1 x350 +1 x22 >= 0 ;
-1 x350 +1 x5 >= 0 ;
+1 x350 -1 x22 -1 x5 >= -1 ;
-1 x336 +1 x21 >= 0 ;
-1 x336 +1 x6 >= 0 ;
+1 x336 -1 x21 -1 x6 >= -1 ;
-1 x322 +1 x20 >= 0 ;
-1 x322 +1 x7 >= 0 ;
+1 x322 -1 x20 -1 x7 >= -1 ;
-1 x308 +1 x19 >= 0 ;
-1 x308 +1 x8 >= 0 ;
+1 x308 -1 x19 -1 x8 >= -1 ;
-1 x294 +1 x18 >= 0 ;
-1 x294 +1 x9 >= 0 ;
+1 x294 -1 x18 -1 x9 >= -1 ;
-1 x280 +1 x17 >= 0 ;
-1 x280 +1 x10 >= 0 ;
+1 x280 -1 x17 -1 x10 >= -1 ;
-1 x266 +1 x16 >= 0 ;
-1 x266 +1 x11 >= 0 ;
+1 x266 -1 x16 -1 x11 >= -1 ;
-1 x196 +1 x12 >= 0 ;
-1 x196 +1 x16 >= 0 ;
+1 x196 -1 x12 -1 x16 >= -1 ;
-1 x182 +1 x11 >= 0 ;
-1 x182 +1 x17 >= 0 ;
+1 x182 -1 x11 -1 x17 >= -1 ;
-1 x168 +1 x10 >= 0 ;
-1 x168 +1 x18 >= 0 ;
+1 x168 -1 x10 -1 x18 >= -1 ;
-1 x154 +1 x9 >= 0 ;
-1 x154 +1 x19 >= 0 ;
+1 x154 -1 x9 -1 x19 >= -1 ;
-1 x140 +1 x8 >= 0 ;
-1 x140 +1 x20 >= 0 ;
+1 x140 -1 x8 -1 x20 >= -1 ;
-1 x126 +1 x7 >= 0 ;
-1 x126 +1 x21 >= 0 ;
+1 x126 -1 x7 -1 x21 >= -1 ;
-1 x112 +1 x6 >= 0 ;
-1 x112 +1 x22 >= 0 ;
+1 x112 -1 x6 -1 x22 >= -1 ;
-1 x98 +1 x5 >= 0 ;
-1 x98 +1 x23 >= 0 ;
+1 x98 -1 x5 -1 x23 >= -1 ;
-1 x84 +1 x4 >= 0 ;
-1 x84 +1 x24 >= 0 ;
+1 x84 -1 x4 -1 x24 >= -1 ;
-1 x70 +1 x3 >= 0 ;
-1 x70 +1 x25 >= 0 ;
+1 x70 -1 x3 -1 x25 >= -1 ;
-1 x56 +1 x2 >= 0 ;
-1 x56 +1 x26 >= 0 ;
+1 x56 -1 x2 -1 x26 >= -1 ;
-1 x42 +1 x1 >= 0 ;
-1 x42 +1 x27 >= 0 ;
+1 x42 -1 x1 -1 x27 >= -1 ;
-1 x421 +1 x27 >= 0 ;
-1 x421 +1 x1 >= 0 ;
+1 x421 -1 x27 -1 x1 >= -1 ;
-1 x407 +1 x26 >= 0 ;
-1 x407 +1 x2 >= 0 ;
+1 x407 -1 x26 -1 x2 >= -1 ;
-1 x393 +1 x25 >= 0 ;
-1 x393 +1 x3 >= 0 ;
+1 x393 -1 x25 -1 x3 >= -1 ;
-1 x379 +1 x24 >= 0 ;
-1 x379 +1 x4 >= 0 ;
+1 x379 -1 x24 -1 x4 >= -1 ;
-1 x365 +1 x23 >= 0 ;
-1 x365 +1 x5 >= 0 ;
+1 x365 -1 x23 -1 x5 >= -1 ;
-1 x351 +1 x22 >= 0 ;
-1 x351 +1 x6 >= 0 ;
+1 x351 -1 x22 -1 x6 >= -1 ;
-1 x337 +1 x21 >= 0 ;
-1 x337 +1 x7 >= 0 ;
+1 x337 -1 x21 -1 x7 >= -1 ;
-1 x323 +1 x20 >= 0 ;
-1 x323 +1 x8 >= 0 ;
+1 x323 -1 x20 -1 x8 >= -1 ;
-1 x309 +1 x19 >= 0 ;
-1 x309 +1 x9 >= 0 ;
+1 x309 -1 x19 -1 x9 >= -1 ;
-1 x295 +1 x18 >= 0 ;
-1 x295 +1 x10 >= 0 ;
+1 x295 -1 x18 -1 x10 >= -1 ;
-1 x281 +1 x17 >= 0 ;
-1 x281 +1 x11 >= 0 ;
+1 x281 -1 x17 -1 x11 >= -1 ;
-1 x267 +1 x16 >= 0 ;
-1 x267 +1 x12 >= 0 ;
+1 x267 -1 x16 -1 x12 >= -1 ;
-1 x211 +1 x13 >= 0 ;
-1 x211 +1 x16 >= 0 ;
+1 x211 -1 x13 -1 x16 >= -1 ;
-1 x197 +1 x12 >= 0 ;
-1 x197 +1 x17 >= 0 ;
+1 x197 -1 x12 -1 x17 >= -1 ;
-1 x183 +1 x11 >= 0 ;
-1 x183 +1 x18 >= 0 ;
+1 x183 -1 x11 -1 x18 >= -1 ;
-1 x169 +1 x10 >= 0 ;
-1 x169 +1 x19 >= 0 ;
+1 x169 -1 x10 -1 x19 >= -1 ;
-1 x155 +1 x9 >= 0 ;
-1 x155 +1 x20 >= 0 ;
+1 x155 -1 x9 -1 x20 >= -1 ;
-1 x141 +1 x8 >= 0 ;
-1 x141 +1 x21 >= 0 ;
+1 x141 -1 x8 -1 x21 >= -1 ;
-1 x127 +1 x7 >= 0 ;
-1 x127 +1 x22 >= 0 ;
+1 x127 -1 x7 -1 x22 >= -1 ;
-1 x113 +1 x6 >= 0 ;
-1 x113 +1 x23 >= 0 ;
+1 x113 -1 x6 -1 x23 >= -1 ;
-1 x99 +1 x5 >= 0 ;
-1 x99 +1 x24 >= 0 ;
+1 x99 -1 x5 -1 x24 >= -1 ;
-1 x85 +1 x4 >= 0 ;
-1 x85 +1 x25 >= 0 ;
+1 x85 -1 x4 -1 x25 >= -1 ;
-1 x71 +1 x3 >= 0 ;
-1 x71 +1 x26 >= 0 ;
+1 x71 -1 x3 -1 x26 >= -1 ;
-1 x57 +1 x2 >= 0 ;
-1 x57 +1 x27 >= 0 ;
+1 x57 -1 x2 -1 x27 >= -1 ;
-1 x43 +1 x1 >= 0 ;
-1 x43 +1 x28 >= 0 ;
+1 x43 -1 x1 -1 x28 >= -1 ;
-1 x436 +1 x28 >= 0 ;
-1 x436 +1 x1 >= 0 ;
+1 x436 -1 x28 -1 x1 >= -1 ;
-1 x422 +1 x27 >= 0 ;
-1 x422 +1 x2 >= 0 ;
+1 x422 -1 x27 -1 x2 >= -1 ;
-1 x408 +1 x26 >= 0 ;
-1 x408 +1 x3 >= 0 ;
+1 x408 -1 x26 -1 x3 >= -1 ;
-1 x394 +1 x25 >= 0 ;
-1 x394 +1 x4 >= 0 ;
+1 x394 -1 x25 -1 x4 >= -1 ;
-1 x380 +1 x24 >= 0 ;
-1 x380 +1 x5 >= 0 ;
+1 x380 -1 x24 -1 x5 >= -1 ;
-1 x366 +1 x23 >= 0 ;
-1 x366 +1 x6 >= 0 ;
+1 x366 -1 x23 -1 x6 >= -1 ;
-1 x352 +1 x22 >= 0 ;
-1 x352 +1 x7 >= 0 ;
+1 x352 -1 x22 -1 x7 >= -1 ;
-1 x338 +1 x21 >= 0 ;
-1 x338 +1 x8 >= 0 ;
+1 x338 -1 x21 -1 x8 >= -1 ;
-1 x324 +1 x20 >= 0 ;
-1 x324 +1 x9 >= 0 ;
+1 x324 -1 x20 -1 x9 >= -1 ;
-1 x310 +1 x19 >= 0 ;
-1 x310 +1 x10 >= 0 ;
+1 x310 -1 x19 -1 x10 >= -1 ;
-1 x296 +1 x18 >= 0 ;
-1 x296 +1 x11 >= 0 ;
+1 x296 -1 x18 -1 x11 >= -1 ;
-1 x282 +1 x17 >= 0 ;
-1 x282 +1 x12 >= 0 ;
+1 x282 -1 x17 -1 x12 >= -1 ;
-1 x268 +1 x16 >= 0 ;
-1 x268 +1 x13 >= 0 ;
+1 x268 -1 x16 -1 x13 >= -1 ;
-1 x226 +1 x14 >= 0 ;
-1 x226 +1 x16 >= 0 ;
+1 x226 -1 x14 -1 x16 >= -1 ;
-1 x212 +1 x13 >= 0 ;
-1 x212 +1 x17 >= 0 ;
+1 x212 -1 x13 -1 x17 >= -1 ;
-1 x198 +1 x12 >= 0 ;
-1 x198 +1 x18 >= 0 ;
+1 x198 -1 x12 -1 x18 >= -1 ;
-1 x184 +1 x11 >= 0 ;
-1 x184 +1 x19 >= 0 ;
+1 x184 -1 x11 -1 x19 >= -1 ;
-1 x170 +1 x10 >= 0 ;
-1 x170 +1 x20 >= 0 ;
+1 x170 -1 x10 -1 x20 >= -1 ;
-1 x156 +1 x9 >= 0 ;
-1 x156 +1 x21 >= 0 ;
+1 x156 -1 x9 -1 x21 >= -1 ;
-1 x142 +1 x8 >= 0 ;
-1 x142 +1 x22 >= 0 ;
+1 x142 -1 x8 -1 x22 >= -1 ;
-1 x128 +1 x7 >= 0 ;
-1 x128 +1 x23 >= 0 ;
+1 x128 -1 x7 -1 x23 >= -1 ;
-1 x114 +1 x6 >= 0 ;
-1 x114 +1 x24 >= 0 ;
+1 x114 -1 x6 -1 x24 >= -1 ;
-1 x100 +1 x5 >= 0 ;
-1 x100 +1 x25 >= 0 ;
+1 x100 -1 x5 -1 x25 >= -1 ;
-1 x86 +1 x4 >= 0 ;
-1 x86 +1 x26 >= 0 ;
+1 x86 -1 x4 -1 x26 >= -1 ;
-1 x72 +1 x3 >= 0 ;
-1 x72 +1 x27 >= 0 ;
+1 x72 -1 x3 -1 x27 >= -1 ;
-1 x58 +1 x2 >= 0 ;
-1 x58 +1 x28 >= 0 ;
+1 x58 -1 x2 -1 x28 >= -1 ;
-1 x44 +1 x1 >= 0 ;
-1 x44 +1 x29 >= 0 ;
+1 x44 -1 x1 -1 x29 >= -1 ;
-1 x451 +1 x29 >= 0 ;
-1 x451 +1 x1 >= 0 ;
+1 x451 -1 x29 -1 x1 >= -1 ;
-1 x437 +1 x28 >= 0 ;
-1 x437 +1 x2 >= 0 ;
+1 x437 -1 x28 -1 x2 >= -1 ;
-1 x423 +1 x27 >= 0 ;
-1 x423 +1 x3 >= 0 ;
+1 x423 -1 x27 -1 x3 >= -1 ;
-1 x409 +1 x26 >= 0 ;
-1 x409 +1 x4 >= 0 ;
+1 x409 -1 x26 -1 x4 >= -1 ;
-1 x395 +1 x25 >= 0 ;
-1 x395 +1 x5 >= 0 ;
+1 x395 -1 x25 -1 x5 >= -1 ;
-1 x381 +1 x24 >= 0 ;
-1 x381 +1 x6 >= 0 ;
+1 x381 -1 x24 -1 x6 >= -1 ;
-1 x367 +1 x23 >= 0 ;
-1 x367 +1 x7 >= 0 ;
+1 x367 -1 x23 -1 x7 >= -1 ;
-1 x353 +1 x22 >= 0 ;
-1 x353 +1 x8 >= 0 ;
+1 x353 -1 x22 -1 x8 >= -1 ;
-1 x339 +1 x21 >= 0 ;
-1 x339 +1 x9 >= 0 ;
+1 x339 -1 x21 -1 x9 >= -1 ;
-1 x325 +1 x20 >= 0 ;
-1 x325 +1 x10 >= 0 ;
+1 x325 -1 x20 -1 x10 >= -1 ;
-1 x311 +1 x19 >= 0 ;
-1 x311 +1 x11 >= 0 ;
+1 x311 -1 x19 -1 x11 >= -1 ;
-1 x297 +1 x18 >= 0 ;
-1 x297 +1 x12 >= 0 ;
+1 x297 -1 x18 -1 x12 >= -1 ;
-1 x283 +1 x17 >= 0 ;
-1 x283 +1 x13 >= 0 ;
+1 x283 -1 x17 -1 x13 >= -1 ;
-1 x269 +1 x16 >= 0 ;
-1 x269 +1 x14 >= 0 ;
+1 x269 -1 x16 -1 x14 >= -1 ;
-1 x241 +1 x15 >= 0 ;
-1 x241 +1 x16 >= 0 ;
+1 x241 -1 x15 -1 x16 >= -1 ;
-1 x227 +1 x14 >= 0 ;
-1 x227 +1 x17 >= 0 ;
+1 x227 -1 x14 -1 x17 >= -1 ;
-1 x213 +1 x13 >= 0 ;
-1 x213 +1 x18 >= 0 ;
+1 x213 -1 x13 -1 x18 >= -1 ;
-1 x199 +1 x12 >= 0 ;
-1 x199 +1 x19 >= 0 ;
+1 x199 -1 x12 -1 x19 >= -1 ;
-1 x185 +1 x11 >= 0 ;
-1 x185 +1 x20 >= 0 ;
+1 x185 -1 x11 -1 x20 >= -1 ;
-1 x171 +1 x10 >= 0 ;
-1 x171 +1 x21 >= 0 ;
+1 x171 -1 x10 -1 x21 >= -1 ;
-1 x157 +1 x9 >= 0 ;
-1 x157 +1 x22 >= 0 ;
+1 x157 -1 x9 -1 x22 >= -1 ;
-1 x143 +1 x8 >= 0 ;
-1 x143 +1 x23 >= 0 ;
+1 x143 -1 x8 -1 x23 >= -1 ;
-1 x129 +1 x7 >= 0 ;
-1 x129 +1 x24 >= 0 ;
+1 x129 -1 x7 -1 x24 >= -1 ;
-1 x115 +1 x6 >= 0 ;
-1 x115 +1 x25 >= 0 ;
+1 x115 -1 x6 -1 x25 >= -1 ;
-1 x101 +1 x5 >= 0 ;
-1 x101 +1 x26 >= 0 ;
+1 x101 -1 x5 -1 x26 >= -1 ;
-1 x87 +1 x4 >= 0 ;
-1 x87 +1 x27 >= 0 ;
+1 x87 -1 x4 -1 x27 >= -1 ;
-1 x73 +1 x3 >= 0 ;
-1 x73 +1 x28 >= 0 ;
+1 x73 -1 x3 -1 x28 >= -1 ;
-1 x59 +1 x2 >= 0 ;
-1 x59 +1 x29 >= 0 ;
+1 x59 -1 x2 -1 x29 >= -1 ;
-1 x45 +1 x1 >= 0 ;
-1 x45 +1 x30 >= 0 ;
+1 x45 -1 x1 -1 x30 >= -1 ;
-1 x466 +1 x30 >= 0 ;
-1 x466 +1 x1 >= 0 ;
+1 x466 -1 x30 -1 x1 >= -1 ;
-1 x452 +1 x29 >= 0 ;
-1 x452 +1 x2 >= 0 ;
+1 x452 -1 x29 -1 x2 >= -1 ;
-1 x438 +1 x28 >= 0 ;
-1 x438 +1 x3 >= 0 ;
+1 x438 -1 x28 -1 x3 >= -1 ;
-1 x424 +1 x27 >= 0 ;
-1 x424 +1 x4 >= 0 ;
+1 x424 -1 x27 -1 x4 >= -1 ;
-1 x410 +1 x26 >= 0 ;
-1 x410 +1 x5 >= 0 ;
+1 x410 -1 x26 -1 x5 >= -1 ;
-1 x396 +1 x25 >= 0 ;
-1 x396 +1 x6 >= 0 ;
+1 x396 -1 x25 -1 x6 >= -1 ;
-1 x382 +1 x24 >= 0 ;
-1 x382 +1 x7 >= 0 ;
+1 x382 -1 x24 -1 x7 >= -1 ;
-1 x368 +1 x23 >= 0 ;
-1 x368 +1 x8 >= 0 ;
+1 x368 -1 x23 -1 x8 >= -1 ;
-1 x354 +1 x22 >= 0 ;
-1 x354 +1 x9 >= 0 ;
+1 x354 -1 x22 -1 x9 >= -1 ;
-1 x340 +1 x21 >= 0 ;
-1 x340 +1 x10 >= 0 ;
+1 x340 -1 x21 -1 x10 >= -1 ;
-1 x326 +1 x20 >= 0 ;
-1 x326 +1 x11 >= 0 ;
+1 x326 -1 x20 -1 x11 >= -1 ;
-1 x312 +1 x19 >= 0 ;
-1 x312 +1 x12 >= 0 ;
+1 x312 -1 x19 -1 x12 >= -1 ;
-1 x298 +1 x18 >= 0 ;
-1 x298 +1 x13 >= 0 ;
+1 x298 -1 x18 -1 x13 >= -1 ;
-1 x284 +1 x17 >= 0 ;
-1 x284 +1 x14 >= 0 ;
+1 x284 -1 x17 -1 x14 >= -1 ;
-1 x270 +1 x16 >= 0 ;
-1 x270 +1 x15 >= 0 ;
+1 x270 -1 x16 -1 x15 >= -1 ;
-1 x242 +1 x15 >= 0 ;
-1 x242 +1 x17 >= 0 ;
+1 x242 -1 x15 -1 x17 >= -1 ;
-1 x228 +1 x14 >= 0 ;
-1 x228 +1 x18 >= 0 ;
+1 x228 -1 x14 -1 x18 >= -1 ;
-1 x214 +1 x13 >= 0 ;
-1 x214 +1 x19 >= 0 ;
+1 x214 -1 x13 -1 x19 >= -1 ;
-1 x200 +1 x12 >= 0 ;
-1 x200 +1 x20 >= 0 ;
+1 x200 -1 x12 -1 x20 >= -1 ;
-1 x186 +1 x11 >= 0 ;
-1 x186 +1 x21 >= 0 ;
+1 x186 -1 x11 -1 x21 >= -1 ;
-1 x172 +1 x10 >= 0 ;
-1 x172 +1 x22 >= 0 ;
+1 x172 -1 x10 -1 x22 >= -1 ;
-1 x158 +1 x9 >= 0 ;
-1 x158 +1 x23 >= 0 ;
+1 x158 -1 x9 -1 x23 >= -1 ;
-1 x144 +1 x8 >= 0 ;
-1 x144 +1 x24 >= 0 ;
+1 x144 -1 x8 -1 x24 >= -1 ;
-1 x130 +1 x7 >= 0 ;
-1 x130 +1 x25 >= 0 ;
+1 x130 -1 x7 -1 x25 >= -1 ;
-1 x116 +1 x6 >= 0 ;
-1 x116 +1 x26 >= 0 ;
+1 x116 -1 x6 -1 x26 >= -1 ;
-1 x102 +1 x5 >= 0 ;
-1 x102 +1 x27 >= 0 ;
+1 x102 -1 x5 -1 x27 >= -1 ;
-1 x88 +1 x4 >= 0 ;
-1 x88 +1 x28 >= 0 ;
+1 x88 -1 x4 -1 x28 >= -1 ;
-1 x74 +1 x3 >= 0 ;
-1 x74 +1 x29 >= 0 ;
+1 x74 -1 x3 -1 x29 >= -1 ;
-1 x60 +1 x2 >= 0 ;
-1 x60 +1 x30 >= 0 ;
+1 x60 -1 x2 -1 x30 >= -1 ;
-1 x467 +1 x30 >= 0 ;
-1 x467 +1 x2 >= 0 ;
+1 x467 -1 x30 -1 x2 >= -1 ;
-1 x453 +1 x29 >= 0 ;
-1 x453 +1 x3 >= 0 ;
+1 x453 -1 x29 -1 x3 >= -1 ;
-1 x439 +1 x28 >= 0 ;
-1 x439 +1 x4 >= 0 ;
+1 x439 -1 x28 -1 x4 >= -1 ;
-1 x425 +1 x27 >= 0 ;
-1 x425 +1 x5 >= 0 ;
+1 x425 -1 x27 -1 x5 >= -1 ;
-1 x411 +1 x26 >= 0 ;
-1 x411 +1 x6 >= 0 ;
+1 x411 -1 x26 -1 x6 >= -1 ;
-1 x397 +1 x25 >= 0 ;
-1 x397 +1 x7 >= 0 ;
+1 x397 -1 x25 -1 x7 >= -1 ;
-1 x383 +1 x24 >= 0 ;
-1 x383 +1 x8 >= 0 ;
+1 x383 -1 x24 -1 x8 >= -1 ;
-1 x369 +1 x23 >= 0 ;
-1 x369 +1 x9 >= 0 ;
+1 x369 -1 x23 -1 x9 >= -1 ;
-1 x355 +1 x22 >= 0 ;
-1 x355 +1 x10 >= 0 ;
+1 x355 -1 x22 -1 x10 >= -1 ;
-1 x341 +1 x21 >= 0 ;
-1 x341 +1 x11 >= 0 ;
+1 x341 -1 x21 -1 x11 >= -1 ;
-1 x327 +1 x20 >= 0 ;
-1 x327 +1 x12 >= 0 ;
+1 x327 -1 x20 -1 x12 >= -1 ;
-1 x313 +1 x19 >= 0 ;
-1 x313 +1 x13 >= 0 ;
+1 x313 -1 x19 -1 x13 >= -1 ;
-1 x299 +1 x18 >= 0 ;
-1 x299 +1 x14 >= 0 ;
+1 x299 -1 x18 -1 x14 >= -1 ;
-1 x285 +1 x17 >= 0 ;
-1 x285 +1 x15 >= 0 ;
+1 x285 -1 x17 -1 x15 >= -1 ;
-1 x243 +1 x15 >= 0 ;
-1 x243 +1 x18 >= 0 ;
+1 x243 -1 x15 -1 x18 >= -1 ;
-1 x229 +1 x14 >= 0 ;
-1 x229 +1 x19 >= 0 ;
+1 x229 -1 x14 -1 x19 >= -1 ;
-1 x215 +1 x13 >= 0 ;
-1 x215 +1 x20 >= 0 ;
+1 x215 -1 x13 -1 x20 >= -1 ;
-1 x201 +1 x12 >= 0 ;
-1 x201 +1 x21 >= 0 ;
+1 x201 -1 x12 -1 x21 >= -1 ;
-1 x187 +1 x11 >= 0 ;
-1 x187 +1 x22 >= 0 ;
+1 x187 -1 x11 -1 x22 >= -1 ;
-1 x173 +1 x10 >= 0 ;
-1 x173 +1 x23 >= 0 ;
+1 x173 -1 x10 -1 x23 >= -1 ;
-1 x159 +1 x9 >= 0 ;
-1 x159 +1 x24 >= 0 ;
+1 x159 -1 x9 -1 x24 >= -1 ;
-1 x145 +1 x8 >= 0 ;
-1 x145 +1 x25 >= 0 ;
+1 x145 -1 x8 -1 x25 >= -1 ;
-1 x131 +1 x7 >= 0 ;
-1 x131 +1 x26 >= 0 ;
+1 x131 -1 x7 -1 x26 >= -1 ;
-1 x117 +1 x6 >= 0 ;
-1 x117 +1 x27 >= 0 ;
+1 x117 -1 x6 -1 x27 >= -1 ;
-1 x103 +1 x5 >= 0 ;
-1 x103 +1 x28 >= 0 ;
+1 x103 -1 x5 -1 x28 >= -1 ;
-1 x89 +1 x4 >= 0 ;
-1 x89 +1 x29 >= 0 ;
+1 x89 -1 x4 -1 x29 >= -1 ;
-1 x75 +1 x3 >= 0 ;
-1 x75 +1 x30 >= 0 ;
+1 x75 -1 x3 -1 x30 >= -1 ;
-1 x468 +1 x30 >= 0 ;
-1 x468 +1 x3 >= 0 ;
+1 x468 -1 x30 -1 x3 >= -1 ;
-1 x454 +1 x29 >= 0 ;
-1 x454 +1 x4 >= 0 ;
+1 x454 -1 x29 -1 x4 >= -1 ;
-1 x440 +1 x28 >= 0 ;
-1 x440 +1 x5 >= 0 ;
+1 x440 -1 x28 -1 x5 >= -1 ;
-1 x426 +1 x27 >= 0 ;
-1 x426 +1 x6 >= 0 ;
+1 x426 -1 x27 -1 x6 >= -1 ;
-1 x412 +1 x26 >= 0 ;
-1 x412 +1 x7 >= 0 ;
+1 x412 -1 x26 -1 x7 >= -1 ;
-1 x398 +1 x25 >= 0 ;
-1 x398 +1 x8 >= 0 ;
+1 x398 -1 x25 -1 x8 >= -1 ;
-1 x384 +1 x24 >= 0 ;
-1 x384 +1 x9 >= 0 ;
+1 x384 -1 x24 -1 x9 >= -1 ;
-1 x370 +1 x23 >= 0 ;
-1 x370 +1 x10 >= 0 ;
+1 x370 -1 x23 -1 x10 >= -1 ;
-1 x356 +1 x22 >= 0 ;
-1 x356 +1 x11 >= 0 ;
+1 x356 -1 x22 -1 x11 >= -1 ;
-1 x342 +1 x21 >= 0 ;
-1 x342 +1 x12 >= 0 ;
+1 x342 -1 x21 -1 x12 >= -1 ;
-1 x328 +1 x20 >= 0 ;
-1 x328 +1 x13 >= 0 ;
+1 x328 -1 x20 -1 x13 >= -1 ;
-1 x314 +1 x19 >= 0 ;
-1 x314 +1 x14 >= 0 ;
+1 x314 -1 x19 -1 x14 >= -1 ;
-1 x300 +1 x18 >= 0 ;
-1 x300 +1 x15 >= 0 ;
+1 x300 -1 x18 -1 x15 >= -1 ;
-1 x244 +1 x15 >= 0 ;
-1 x244 +1 x19 >= 0 ;
+1 x244 -1 x15 -1 x19 >= -1 ;
-1 x230 +1 x14 >= 0 ;
-1 x230 +1 x20 >= 0 ;
+1 x230 -1 x14 -1 x20 >= -1 ;
-1 x216 +1 x13 >= 0 ;
-1 x216 +1 x21 >= 0 ;
+1 x216 -1 x13 -1 x21 >= -1 ;
-1 x202 +1 x12 >= 0 ;
-1 x202 +1 x22 >= 0 ;
+1 x202 -1 x12 -1 x22 >= -1 ;
-1 x188 +1 x11 >= 0 ;
-1 x188 +1 x23 >= 0 ;
+1 x188 -1 x11 -1 x23 >= -1 ;
-1 x174 +1 x10 >= 0 ;
-1 x174 +1 x24 >= 0 ;
+1 x174 -1 x10 -1 x24 >= -1 ;
-1 x160 +1 x9 >= 0 ;
-1 x160 +1 x25 >= 0 ;
+1 x160 -1 x9 -1 x25 >= -1 ;
-1 x146 +1 x8 >= 0 ;
-1 x146 +1 x26 >= 0 ;
+1 x146 -1 x8 -1 x26 >= -1 ;
-1 x132 +1 x7 >= 0 ;
-1 x132 +1 x27 >= 0 ;
+1 x132 -1 x7 -1 x27 >= -1 ;
-1 x118 +1 x6 >= 0 ;
-1 x118 +1 x28 >= 0 ;
+1 x118 -1 x6 -1 x28 >= -1 ;
-1 x104 +1 x5 >= 0 ;
-1 x104 +1 x29 >= 0 ;
+1 x104 -1 x5 -1 x29 >= -1 ;
-1 x90 +1 x4 >= 0 ;
-1 x90 +1 x30 >= 0 ;
+1 x90 -1 x4 -1 x30 >= -1 ;
-1 x469 +1 x30 >= 0 ;
-1 x469 +1 x4 >= 0 ;
+1 x469 -1 x30 -1 x4 >= -1 ;
-1 x455 +1 x29 >= 0 ;
-1 x455 +1 x5 >= 0 ;
+1 x455 -1 x29 -1 x5 >= -1 ;
-1 x441 +1 x28 >= 0 ;
-1 x441 +1 x6 >= 0 ;
+1 x441 -1 x28 -1 x6 >= -1 ;
-1 x427 +1 x27 >= 0 ;
-1 x427 +1 x7 >= 0 ;
+1 x427 -1 x27 -1 x7 >= -1 ;
-1 x413 +1 x26 >= 0 ;
-1 x413 +1 x8 >= 0 ;
+1 x413 -1 x26 -1 x8 >= -1 ;
-1 x399 +1 x25 >= 0 ;
-1 x399 +1 x9 >= 0 ;
+1 x399 -1 x25 -1 x9 >= -1 ;
-1 x385 +1 x24 >= 0 ;
-1 x385 +1 x10 >= 0 ;
+1 x385 -1 x24 -1 x10 >= -1 ;
-1 x371 +1 x23 >= 0 ;
-1 x371 +1 x11 >= 0 ;
+1 x371 -1 x23 -1 x11 >= -1 ;
-1 x357 +1 x22 >= 0 ;
-1 x357 +1 x12 >= 0 ;
+1 x357 -1 x22 -1 x12 >= -1 ;
-1 x343 +1 x21 >= 0 ;
-1 x343 +1 x13 >= 0 ;
+1 x343 -1 x21 -1 x13 >= -1 ;
-1 x329 +1 x20 >= 0 ;
-1 x329 +1 x14 >= 0 ;
+1 x329 -1 x20 -1 x14 >= -1 ;
-1 x315 +1 x19 >= 0 ;
-1 x315 +1 x15 >= 0 ;
+1 x315 -1 x19 -1 x15 >= -1 ;
-1 x245 +1 x15 >= 0 ;
-1 x245 +1 x20 >= 0 ;
+1 x245 -1 x15 -1 x20 >= -1 ;
-1 x231 +1 x14 >= 0 ;
-1 x231 +1 x21 >= 0 ;
+1 x231 -1 x14 -1 x21 >= -1 ;
-1 x217 +1 x13 >= 0 ;
-1 x217 +1 x22 >= 0 ;
+1 x217 -1 x13 -1 x22 >= -1 ;
-1 x203 +1 x12 >= 0 ;
-1 x203 +1 x23 >= 0 ;
+1 x203 -1 x12 -1 x23 >= -1 ;
-1 x189 +1 x11 >= 0 ;
-1 x189 +1 x24 >= 0 ;
+1 x189 -1 x11 -1 x24 >= -1 ;
-1 x175 +1 x10 >= 0 ;
-1 x175 +1 x25 >= 0 ;
+1 x175 -1 x10 -1 x25 >= -1 ;
-1 x161 +1 x9 >= 0 ;
-1 x161 +1 x26 >= 0 ;
+1 x161 -1 x9 -1 x26 >= -1 ;
-1 x147 +1 x8 >= 0 ;
-1 x147 +1 x27 >= 0 ;
+1 x147 -1 x8 -1 x27 >= -1 ;
-1 x133 +1 x7 >= 0 ;
-1 x133 +1 x28 >= 0 ;
+1 x133 -1 x7 -1 x28 >= -1 ;
-1 x119 +1 x6 >= 0 ;
-1 x119 +1 x29 >= 0 ;
+1 x119 -1 x6 -1 x29 >= -1 ;
-1 x105 +1 x5 >= 0 ;
-1 x105 +1 x30 >= 0 ;
+1 x105 -1 x5 -1 x30 >= -1 ;
-1 x470 +1 x30 >= 0 ;
-1 x470 +1 x5 >= 0 ;
+1 x470 -1 x30 -1 x5 >= -1 ;
-1 x456 +1 x29 >= 0 ;
-1 x456 +1 x6 >= 0 ;
+1 x456 -1 x29 -1 x6 >= -1 ;
-1 x442 +1 x28 >= 0 ;
-1 x442 +1 x7 >= 0 ;
+1 x442 -1 x28 -1 x7 >= -1 ;
-1 x428 +1 x27 >= 0 ;
-1 x428 +1 x8 >= 0 ;
+1 x428 -1 x27 -1 x8 >= -1 ;
-1 x414 +1 x26 >= 0 ;
-1 x414 +1 x9 >= 0 ;
+1 x414 -1 x26 -1 x9 >= -1 ;
-1 x400 +1 x25 >= 0 ;
-1 x400 +1 x10 >= 0 ;
+1 x400 -1 x25 -1 x10 >= -1 ;
-1 x386 +1 x24 >= 0 ;
-1 x386 +1 x11 >= 0 ;
+1 x386 -1 x24 -1 x11 >= -1 ;
-1 x372 +1 x23 >= 0 ;
-1 x372 +1 x12 >= 0 ;
+1 x372 -1 x23 -1 x12 >= -1 ;
-1 x358 +1 x22 >= 0 ;
-1 x358 +1 x13 >= 0 ;
+1 x358 -1 x22 -1 x13 >= -1 ;
-1 x344 +1 x21 >= 0 ;
-1 x344 +1 x14 >= 0 ;
+1 x344 -1 x21 -1 x14 >= -1 ;
-1 x330 +1 x20 >= 0 ;
-1 x330 +1 x15 >= 0 ;
+1 x330 -1 x20 -1 x15 >= -1 ;
-1 x246 +1 x15 >= 0 ;
-1 x246 +1 x21 >= 0 ;
+1 x246 -1 x15 -1 x21 >= -1 ;
-1 x232 +1 x14 >= 0 ;
-1 x232 +1 x22 >= 0 ;
+1 x232 -1 x14 -1 x22 >= -1 ;
-1 x218 +1 x13 >= 0 ;
-1 x218 +1 x23 >= 0 ;
+1 x218 -1 x13 -1 x23 >= -1 ;
-1 x204 +1 x12 >= 0 ;
-1 x204 +1 x24 >= 0 ;
+1 x204 -1 x12 -1 x24 >= -1 ;
-1 x190 +1 x11 >= 0 ;
-1 x190 +1 x25 >= 0 ;
+1 x190 -1 x11 -1 x25 >= -1 ;
-1 x176 +1 x10 >= 0 ;
-1 x176 +1 x26 >= 0 ;
+1 x176 -1 x10 -1 x26 >= -1 ;
-1 x162 +1 x9 >= 0 ;
-1 x162 +1 x27 >= 0 ;
+1 x162 -1 x9 -1 x27 >= -1 ;
-1 x148 +1 x8 >= 0 ;
-1 x148 +1 x28 >= 0 ;
+1 x148 -1 x8 -1 x28 >= -1 ;
-1 x134 +1 x7 >= 0 ;
-1 x134 +1 x29 >= 0 ;
+1 x134 -1 x7 -1 x29 >= -1 ;
-1 x120 +1 x6 >= 0 ;
-1 x120 +1 x30 >= 0 ;
+1 x120 -1 x6 -1 x30 >= -1 ;
-1 x471 +1 x30 >= 0 ;
-1 x471 +1 x6 >= 0 ;
+1 x471 -1 x30 -1 x6 >= -1 ;
-1 x457 +1 x29 >= 0 ;
-1 x457 +1 x7 >= 0 ;
+1 x457 -1 x29 -1 x7 >= -1 ;
-1 x443 +1 x28 >= 0 ;
-1 x443 +1 x8 >= 0 ;
+1 x443 -1 x28 -1 x8 >= -1 ;
-1 x429 +1 x27 >= 0 ;
-1 x429 +1 x9 >= 0 ;
+1 x429 -1 x27 -1 x9 >= -1 ;
-1 x415 +1 x26 >= 0 ;
-1 x415 +1 x10 >= 0 ;
+1 x415 -1 x26 -1 x10 >= -1 ;
-1 x401 +1 x25 >= 0 ;
-1 x401 +1 x11 >= 0 ;
+1 x401 -1 x25 -1 x11 >= -1 ;
-1 x387 +1 x24 >= 0 ;
-1 x387 +1 x12 >= 0 ;
+1 x387 -1 x24 -1 x12 >= -1 ;
-1 x373 +1 x23 >= 0 ;
-1 x373 +1 x13 >= 0 ;
+1 x373 -1 x23 -1 x13 >= -1 ;
-1 x359 +1 x22 >= 0 ;
-1 x359 +1 x14 >= 0 ;
+1 x359 -1 x22 -1 x14 >= -1 ;
-1 x345 +1 x21 >= 0 ;
-1 x345 +1 x15 >= 0 ;
+1 x345 -1 x21 -1 x15 >= -1 ;
-1 x247 +1 x15 >= 0 ;
-1 x247 +1 x22 >= 0 ;
+1 x247 -1 x15 -1 x22 >= -1 ;
-1 x233 +1 x14 >= 0 ;
-1 x233 +1 x23 >= 0 ;
+1 x233 -1 x14 -1 x23 >= -1 ;
-1 x219 +1 x13 >= 0 ;
-1 x219 +1 x24 >= 0 ;
+1 x219 -1 x13 -1 x24 >= -1 ;
-1 x205 +1 x12 >= 0 ;
-1 x205 +1 x25 >= 0 ;
+1 x205 -1 x12 -1 x25 >= -1 ;
-1 x191 +1 x11 >= 0 ;
-1 x191 +1 x26 >= 0 ;
+1 x191 -1 x11 -1 x26 >= -1 ;
-1 x177 +1 x10 >= 0 ;
-1 x177 +1 x27 >= 0 ;
+1 x177 -1 x10 -1 x27 >= -1 ;
-1 x163 +1 x9 >= 0 ;
-1 x163 +1 x28 >= 0 ;
+1 x163 -1 x9 -1 x28 >= -1 ;
-1 x149 +1 x8 >= 0 ;
-1 x149 +1 x29 >= 0 ;
+1 x149 -1 x8 -1 x29 >= -1 ;
-1 x135 +1 x7 >= 0 ;
-1 x135 +1 x30 >= 0 ;
+1 x135 -1 x7 -1 x30 >= -1 ;
-1 x472 +1 x30 >= 0 ;
-1 x472 +1 x7 >= 0 ;
+1 x472 -1 x30 -1 x7 >= -1 ;
-1 x458 +1 x29 >= 0 ;
-1 x458 +1 x8 >= 0 ;
+1 x458 -1 x29 -1 x8 >= -1 ;
-1 x444 +1 x28 >= 0 ;
-1 x444 +1 x9 >= 0 ;
+1 x444 -1 x28 -1 x9 >= -1 ;
-1 x430 +1 x27 >= 0 ;
-1 x430 +1 x10 >= 0 ;
+1 x430 -1 x27 -1 x10 >= -1 ;
-1 x416 +1 x26 >= 0 ;
-1 x416 +1 x11 >= 0 ;
+1 x416 -1 x26 -1 x11 >= -1 ;
-1 x402 +1 x25 >= 0 ;
-1 x402 +1 x12 >= 0 ;
+1 x402 -1 x25 -1 x12 >= -1 ;
-1 x388 +1 x24 >= 0 ;
-1 x388 +1 x13 >= 0 ;
+1 x388 -1 x24 -1 x13 >= -1 ;
-1 x374 +1 x23 >= 0 ;
-1 x374 +1 x14 >= 0 ;
+1 x374 -1 x23 -1 x14 >= -1 ;
-1 x360 +1 x22 >= 0 ;
-1 x360 +1 x15 >= 0 ;
+1 x360 -1 x22 -1 x15 >= -1 ;
-1 x248 +1 x15 >= 0 ;
-1 x248 +1 x23 >= 0 ;
+1 x248 -1 x15 -1 x23 >= -1 ;
-1 x234 +1 x14 >= 0 ;
-1 x234 +1 x24 >= 0 ;
+1 x234 -1 x14 -1 x24 >= -1 ;
-1 x220 +1 x13 >= 0 ;
-1 x220 +1 x25 >= 0 ;
+1 x220 -1 x13 -1 x25 >= -1 ;
-1 x206 +1 x12 >= 0 ;
-1 x206 +1 x26 >= 0 ;
+1 x206 -1 x12 -1 x26 >= -1 ;
-1 x192 +1 x11 >= 0 ;
-1 x192 +1 x27 >= 0 ;
+1 x192 -1 x11 -1 x27 >= -1 ;
-1 x178 +1 x10 >= 0 ;
-1 x178 +1 x28 >= 0 ;
+1 x178 -1 x10 -1 x28 >= -1 ;
-1 x164 +1 x9 >= 0 ;
-1 x164 +1 x29 >= 0 ;
+1 x164 -1 x9 -1 x29 >= -1 ;
-1 x150 +1 x8 >= 0 ;
-1 x150 +1 x30 >= 0 ;
+1 x150 -1 x8 -1 x30 >= -1 ;
-1 x473 +1 x30 >= 0 ;
-1 x473 +1 x8 >= 0 ;
+1 x473 -1 x30 -1 x8 >= -1 ;
-1 x459 +1 x29 >= 0 ;
-1 x459 +1 x9 >= 0 ;
+1 x459 -1 x29 -1 x9 >= -1 ;
-1 x445 +1 x28 >= 0 ;
-1 x445 +1 x10 >= 0 ;
+1 x445 -1 x28 -1 x10 >= -1 ;
-1 x431 +1 x27 >= 0 ;
-1 x431 +1 x11 >= 0 ;
+1 x431 -1 x27 -1 x11 >= -1 ;
-1 x417 +1 x26 >= 0 ;
-1 x417 +1 x12 >= 0 ;
+1 x417 -1 x26 -1 x12 >= -1 ;
-1 x403 +1 x25 >= 0 ;
-1 x403 +1 x13 >= 0 ;
+1 x403 -1 x25 -1 x13 >= -1 ;
-1 x389 +1 x24 >= 0 ;
-1 x389 +1 x14 >= 0 ;
+1 x389 -1 x24 -1 x14 >= -1 ;
-1 x375 +1 x23 >= 0 ;
-1 x375 +1 x15 >= 0 ;
+1 x375 -1 x23 -1 x15 >= -1 ;
-1 x249 +1 x15 >= 0 ;
-1 x249 +1 x24 >= 0 ;
+1 x249 -1 x15 -1 x24 >= -1 ;
-1 x235 +1 x14 >= 0 ;
-1 x235 +1 x25 >= 0 ;
+1 x235 -1 x14 -1 x25 >= -1 ;
-1 x221 +1 x13 >= 0 ;
-1 x221 +1 x26 >= 0 ;
+1 x221 -1 x13 -1 x26 >= -1 ;
-1 x207 +1 x12 >= 0 ;
-1 x207 +1 x27 >= 0 ;
+1 x207 -1 x12 -1 x27 >= -1 ;
-1 x193 +1 x11 >= 0 ;
-1 x193 +1 x28 >= 0 ;
+1 x193 -1 x11 -1 x28 >= -1 ;
-1 x179 +1 x10 >= 0 ;
-1 x179 +1 x29 >= 0 ;
+1 x179 -1 x10 -1 x29 >= -1 ;
-1 x165 +1 x9 >= 0 ;
-1 x165 +1 x30 >= 0 ;
+1 x165 -1 x9 -1 x30 >= -1 ;
-1 x474 +1 x30 >= 0 ;
-1 x474 +1 x9 >= 0 ;
+1 x474 -1 x30 -1 x9 >= -1 ;
-1 x460 +1 x29 >= 0 ;
-1 x460 +1 x10 >= 0 ;
+1 x460 -1 x29 -1 x10 >= -1 ;
-1 x446 +1 x28 >= 0 ;
-1 x446 +1 x11 >= 0 ;
+1 x446 -1 x28 -1 x11 >= -1 ;
-1 x432 +1 x27 >= 0 ;
-1 x432 +1 x12 >= 0 ;
+1 x432 -1 x27 -1 x12 >= -1 ;
-1 x418 +1 x26 >= 0 ;
-1 x418 +1 x13 >= 0 ;
+1 x418 -1 x26 -1 x13 >= -1 ;
-1 x404 +1 x25 >= 0 ;
-1 x404 +1 x14 >= 0 ;
+1 x404 -1 x25 -1 x14 >= -1 ;
-1 x390 +1 x24 >= 0 ;
-1 x390 +1 x15 >= 0 ;
+1 x390 -1 x24 -1 x15 >= -1 ;
-1 x250 +1 x15 >= 0 ;
-1 x250 +1 x25 >= 0 ;
+1 x250 -1 x15 -1 x25 >= -1 ;
-1 x236 +1 x14 >= 0 ;
-1 x236 +1 x26 >= 0 ;
+1 x236 -1 x14 -1 x26 >= -1 ;
-1 x222 +1 x13 >= 0 ;
-1 x222 +1 x27 >= 0 ;
+1 x222 -1 x13 -1 x27 >= -1 ;
-1 x208 +1 x12 >= 0 ;
-1 x208 +1 x28 >= 0 ;
+1 x208 -1 x12 -1 x28 >= -1 ;
-1 x194 +1 x11 >= 0 ;
-1 x194 +1 x29 >= 0 ;
+1 x194 -1 x11 -1 x29 >= -1 ;
-1 x180 +1 x10 >= 0 ;
-1 x180 +1 x30 >= 0 ;
+1 x180 -1 x10 -1 x30 >= -1 ;
-1 x475 +1 x30 >= 0 ;
-1 x475 +1 x10 >= 0 ;
+1 x475 -1 x30 -1 x10 >= -1 ;
-1 x461 +1 x29 >= 0 ;
-1 x461 +1 x11 >= 0 ;
+1 x461 -1 x29 -1 x11 >= -1 ;
-1 x447 +1 x28 >= 0 ;
-1 x447 +1 x12 >= 0 ;
+1 x447 -1 x28 -1 x12 >= -1 ;
-1 x433 +1 x27 >= 0 ;
-1 x433 +1 x13 >= 0 ;
+1 x433 -1 x27 -1 x13 >= -1 ;
-1 x419 +1 x26 >= 0 ;
-1 x419 +1 x14 >= 0 ;
+1 x419 -1 x26 -1 x14 >= -1 ;
-1 x405 +1 x25 >= 0 ;
-1 x405 +1 x15 >= 0 ;
+1 x405 -1 x25 -1 x15 >= -1 ;
-1 x251 +1 x15 >= 0 ;
-1 x251 +1 x26 >= 0 ;
+1 x251 -1 x15 -1 x26 >= -1 ;
-1 x237 +1 x14 >= 0 ;
-1 x237 +1 x27 >= 0 ;
+1 x237 -1 x14 -1 x27 >= -1 ;
-1 x223 +1 x13 >= 0 ;
-1 x223 +1 x28 >= 0 ;
+1 x223 -1 x13 -1 x28 >= -1 ;
-1 x209 +1 x12 >= 0 ;
-1 x209 +1 x29 >= 0 ;
+1 x209 -1 x12 -1 x29 >= -1 ;
-1 x195 +1 x11 >= 0 ;
-1 x195 +1 x30 >= 0 ;
+1 x195 -1 x11 -1 x30 >= -1 ;
-1 x476 +1 x30 >= 0 ;
-1 x476 +1 x11 >= 0 ;
+1 x476 -1 x30 -1 x11 >= -1 ;
-1 x462 +1 x29 >= 0 ;
-1 x462 +1 x12 >= 0 ;
+1 x462 -1 x29 -1 x12 >= -1 ;
-1 x448 +1 x28 >= 0 ;
-1 x448 +1 x13 >= 0 ;
+1 x448 -1 x28 -1 x13 >= -1 ;
-1 x434 +1 x27 >= 0 ;
-1 x434 +1 x14 >= 0 ;
+1 x434 -1 x27 -1 x14 >= -1 ;
-1 x420 +1 x26 >= 0 ;
-1 x420 +1 x15 >= 0 ;
+1 x420 -1 x26 -1 x15 >= -1 ;
-1 x252 +1 x15 >= 0 ;
-1 x252 +1 x27 >= 0 ;
+1 x252 -1 x15 -1 x27 >= -1 ;
-1 x238 +1 x14 >= 0 ;
-1 x238 +1 x28 >= 0 ;
+1 x238 -1 x14 -1 x28 >= -1 ;
-1 x224 +1 x13 >= 0 ;
-1 x224 +1 x29 >= 0 ;
+1 x224 -1 x13 -1 x29 >= -1 ;
-1 x210 +1 x12 >= 0 ;
-1 x210 +1 x30 >= 0 ;
+1 x210 -1 x12 -1 x30 >= -1 ;
-1 x477 +1 x30 >= 0 ;
-1 x477 +1 x12 >= 0 ;
+1 x477 -1 x30 -1 x12 >= -1 ;
-1 x463 +1 x29 >= 0 ;
-1 x463 +1 x13 >= 0 ;
+1 x463 -1 x29 -1 x13 >= -1 ;
-1 x449 +1 x28 >= 0 ;
-1 x449 +1 x14 >= 0 ;
+1 x449 -1 x28 -1 x14 >= -1 ;
-1 x435 +1 x27 >= 0 ;
-1 x435 +1 x15 >= 0 ;
+1 x435 -1 x27 -1 x15 >= -1 ;
-1 x253 +1 x15 >= 0 ;
-1 x253 +1 x28 >= 0 ;
+1 x253 -1 x15 -1 x28 >= -1 ;
-1 x239 +1 x14 >= 0 ;
-1 x239 +1 x29 >= 0 ;
+1 x239 -1 x14 -1 x29 >= -1 ;
-1 x225 +1 x13 >= 0 ;
-1 x225 +1 x30 >= 0 ;
+1 x225 -1 x13 -1 x30 >= -1 ;
-1 x478 +1 x30 >= 0 ;
-1 x478 +1 x13 >= 0 ;
+1 x478 -1 x30 -1 x13 >= -1 ;
-1 x464 +1 x29 >= 0 ;
-1 x464 +1 x14 >= 0 ;
+1 x464 -1 x29 -1 x14 >= -1 ;
-1 x450 +1 x28 >= 0 ;
-1 x450 +1 x15 >= 0 ;
+1 x450 -1 x28 -1 x15 >= -1 ;
-1 x254 +1 x15 >= 0 ;
-1 x254 +1 x29 >= 0 ;
+1 x254 -1 x15 -1 x29 >= -1 ;
-1 x240 +1 x14 >= 0 ;
-1 x240 +1 x30 >= 0 ;
+1 x240 -1 x14 -1 x30 >= -1 ;
-1 x479 +1 x30 >= 0 ;
-1 x479 +1 x14 >= 0 ;
+1 x479 -1 x30 -1 x14 >= -1 ;
-1 x465 +1 x29 >= 0 ;
-1 x465 +1 x15 >= 0 ;
+1 x465 -1 x29 -1 x15 >= -1 ;
-1 x255 +1 x15 >= 0 ;
-1 x255 +1 x30 >= 0 ;
+1 x255 -1 x15 -1 x30 >= -1 ;
-1 x480 +1 x30 >= 0 ;
-1 x480 +1 x15 >= 0 ;
+1 x480 -1 x30 -1 x15 >= -1 ;
